50
4503

72 666
591 784
386 26
589 776
69 740
766 49
251 596
772 161
310 802
193 910
857 828
700 28
542 971
119 489
157 932
560 418
912 544
664 283
719 107
189 360
28 942
592 68
818 755
498 894
972 172
157 380
423 692
300 248
47 339
723 559
577 745
377 624
270 524
392 449
615 407
507 908
979 326
11 863
178 832
295 582
781 522
914 575
719 34
202 522
606 745
898 113
782 13
121 239
890 315
681 349
